NAME: ACTUAL_TOURS/amz2061
TYPE: TOUR
COMMENT: RouteID_da8ced32-36ea-46e0-abb1-b8bb94046520
DIMENSION: 163
TOUR_SECTION
103
125
126
60
160
127
99
143
93
123
12
85
142
8
151
23
76
36
155
69
70
134
157
96
129
146
63
73
9
116
92
80
30
29
98
31
144
115
78
10
128
89
131
75
83
135
156
61
149
1
94
26
114
40
27
81
137
5
130
53
91
86
71
106
49
2
55
19
145
120
108
122
158
58
50
132
117
121
62
140
46
124
95
21
68
150
111
148
39
90
119
136
56
112
109
54
133
74
141
79
87
7
3
15
59
113
25
147
52
82
33
24
161
17
159
57
163
72
22
102
64
11
44
43
16
41
6
162
47
14
34
153
20
100
51
77
32
101
152
67
105
138
154
28
110
66
118
38
18
104
13
84
4
42
139
37
88
107
35
65
45
97
48
-1
EOF
